p edge 64 512
e 1 50
e 1 7
e 1 36
e 1 13
e 1 40
e 1 42
e 1 41
e 1 37
e 1 19
e 1 46
e 1 33
e 1 23
e 1 29
e 1 17
e 1 16
e 1 15
e 1 61
e 1 55
e 1 21
e 1 35
e 1 3
e 1 45
e 2 16
e 2 39
e 2 44
e 2 21
e 2 34
e 2 27
e 2 45
e 2 59
e 2 4
e 2 53
e 2 10
e 2 17
e 3 10
e 3 5
e 3 56
e 3 55
e 3 15
e 3 32
e 3 6
e 3 62
e 3 33
e 3 28
e 3 23
e 4 28
e 4 8
e 4 45
e 4 24
e 4 55
e 4 59
e 4 42
e 4 41
e 4 19
e 4 20
e 5 61
e 5 43
e 5 9
e 5 51
e 5 16
e 5 31
e 5 59
e 5 60
e 5 10
e 5 11
e 5 38
e 5 19
e 5 62
e 5 20
e 5 34
e 5 64
e 5 33
e 6 19
e 6 54
e 6 33
e 6 53
e 6 12
e 6 40
e 6 15
e 6 49
e 6 26
e 6 44
e 6 11
e 6 52
e 6 34
e 6 23
e 6 8
e 6 18
e 6 39
e 6 13
e 6 60
e 6 24
e 7 48
e 7 25
e 7 16
e 7 29
e 7 40
e 7 22
e 7 54
e 7 42
e 8 30
e 8 39
e 8 18
e 8 17
e 8 19
e 8 23
e 8 16
e 8 38
e 8 31
e 8 49
e 9 55
e 9 61
e 9 60
e 9 52
e 9 56
e 9 28
e 9 42
e 9 51
e 9 21
e 9 31
e 9 10
e 9 62
e 9 39
e 9 40
e 9 41
e 9 35
e 10 36
e 10 38
e 10 61
e 10 50
e 10 45
e 10 20
e 11 49
e 11 40
e 11 31
e 11 47
e 11 21
e 11 43
e 11 30
e 11 50
e 11 19
e 11 59
e 11 17
e 11 51
e 11 36
e 11 42
e 12 40
e 12 34
e 12 45
e 12 38
e 12 28
e 12 35
e 12 60
e 12 56
e 12 57
e 12 20
e 13 19
e 13 28
e 13 27
e 13 26
e 13 35
e 13 32
e 13 63
e 13 40
e 13 47
e 13 58
e 13 14
e 13 20
e 13 22
e 13 51
e 13 55
e 13 18
e 13 29
e 14 19
e 14 42
e 14 49
e 14 43
e 14 23
e 14 18
e 14 46
e 14 56
e 14 44
e 14 45
e 14 16
e 14 38
e 14 47
e 14 61
e 14 29
e 14 57
e 15 48
e 15 46
e 15 49
e 15 23
e 15 36
e 15 28
e 15 59
e 15 51
e 15 61
e 15 43
e 15 31
e 15 60
e 15 18
e 16 35
e 16 47
e 16 56
e 16 20
e 16 23
e 16 44
e 16 53
e 16 49
e 16 59
e 16 51
e 16 26
e 16 61
e 16 60
e 17 59
e 17 33
e 17 34
e 17 37
e 17 40
e 17 47
e 17 31
e 17 57
e 17 64
e 17 20
e 17 49
e 17 30
e 18 31
e 18 48
e 18 47
e 18 64
e 18 46
e 18 43
e 18 41
e 18 29
e 18 45
e 19 29
e 19 63
e 19 23
e 19 59
e 19 52
e 19 39
e 19 45
e 19 46
e 19 34
e 19 43
e 19 55
e 19 21
e 19 25
e 19 36
e 19 49
e 19 27
e 20 37
e 20 50
e 20 35
e 20 21
e 20 40
e 20 58
e 20 42
e 20 22
e 20 63
e 20 49
e 20 59
e 20 30
e 20 64
e 21 41
e 21 52
e 21 61
e 21 56
e 21 30
e 21 37
e 21 40
e 21 47
e 21 58
e 21 33
e 22 32
e 22 46
e 22 28
e 22 53
e 22 41
e 22 61
e 22 26
e 22 29
e 22 45
e 23 60
e 23 36
e 23 33
e 23 43
e 23 58
e 23 53
e 23 63
e 24 27
e 24 62
e 24 53
e 24 55
e 24 28
e 24 31
e 24 48
e 24 58
e 24 59
e 25 42
e 25 44
e 25 41
e 25 26
e 25 62
e 25 52
e 25 49
e 25 53
e 25 46
e 26 41
e 26 46
e 26 42
e 26 61
e 26 52
e 26 56
e 27 32
e 27 56
e 27 38
e 27 36
e 27 45
e 27 52
e 27 51
e 27 34
e 27 30
e 27 33
e 28 60
e 28 36
e 28 39
e 28 45
e 28 49
e 28 50
e 28 62
e 29 50
e 29 62
e 29 51
e 29 46
e 29 37
e 29 35
e 29 38
e 29 55
e 29 39
e 30 56
e 30 53
e 30 61
e 30 42
e 30 54
e 30 46
e 30 50
e 30 51
e 30 45
e 30 40
e 30 37
e 30 43
e 30 57
e 31 62
e 31 52
e 31 50
e 31 35
e 31 41
e 31 61
e 31 33
e 31 60
e 31 39
e 31 58
e 32 37
e 32 60
e 32 50
e 32 57
e 32 53
e 32 36
e 32 51
e 32 47
e 32 54
e 32 55
e 32 33
e 33 57
e 33 60
e 33 61
e 33 44
e 33 43
e 33 50
e 33 59
e 33 58
e 34 48
e 34 37
e 34 44
e 34 45
e 34 36
e 34 60
e 34 58
e 34 46
e 34 40
e 34 51
e 34 41
e 35 41
e 35 59
e 35 39
e 35 57
e 35 53
e 35 40
e 36 63
e 36 58
e 36 55
e 36 41
e 36 43
e 36 47
e 36 56
e 36 46
e 37 63
e 37 59
e 37 53
e 37 47
e 37 45
e 37 42
e 37 62
e 37 44
e 37 64
e 37 40
e 37 46
e 38 64
e 38 41
e 38 60
e 38 44
e 38 54
e 38 49
e 39 44
e 39 58
e 39 54
e 39 43
e 39 59
e 39 47
e 39 56
e 39 63
e 39 45
e 40 55
e 40 63
e 40 50
e 40 43
e 41 62
e 42 55
e 42 58
e 42 49
e 42 51
e 42 63
e 42 43
e 42 60
e 43 61
e 43 47
e 43 52
e 43 53
e 43 60
e 43 56
e 43 54
e 43 59
e 43 46
e 44 51
e 44 45
e 44 60
e 44 50
e 44 62
e 45 48
e 45 60
e 45 58
e 45 51
e 45 50
e 45 62
e 46 62
e 46 54
e 46 53
e 46 52
e 46 55
e 48 54
e 48 57
e 48 50
e 48 61
e 48 62
e 48 55
e 48 52
e 49 50
e 49 53
e 49 51
e 50 51
e 50 63
e 50 60
e 50 56
e 50 55
e 50 52
e 50 62
e 50 57
e 51 53
e 51 63
e 51 60
e 51 62
e 51 64
e 51 52
e 52 63
e 52 53
e 52 58
e 53 56
e 53 55
e 54 57
e 55 63
e 56 64
e 57 64
e 57 61
e 57 60
e 58 64
e 58 61
e 59 61
e 59 62
e 61 62
e 62 63
